nNurses = 87;
nHours = 27;
minHours = 9;
maxHours = 12;
maxConsec = 7;
maxPresence = 27;
demand = [35, 36, 39, 36, 31, 33, 34, 38, 39, 38, 38, 33, 36, 31, 32, 28, 33, 35, 32, 33, 36, 38, 35, 32, 28, 27, 22];
